sat
(= |goto_symex::&92;guard#1| true)
(= |goto_symex::&92;guard#2| false)
(= |memory_model::choice_rf_1_35_0_10_T_0| false)
(= |memory_model::choice_rf_1_35_2_18_T_1| false)
(= |memory_model::choice_rf_1_35_3_38_T_2| true)
(= |memory_model::choice_rf_2_17_0_10_T_3| true)
(= |memory_model::choice_rf_2_17_1_36_T_4| false)
(= |memory_model::choice_rf_2_17_3_38_T_5| false)
(= |memory_model::choice_rf_3_37_0_10_T_6| false)
(= |memory_model::choice_rf_3_37_1_36_T_7| false)
(= |memory_model::choice_rf_3_37_2_18_T_8| true)
(= |memory_model::choice_rf_0_44_0_8_T_9| false)
(= |memory_model::choice_rf_0_44_0_40_T_10| true)
(= |memory_model::choice_rf_0_49_0_8_T_11| false)
(= |memory_model::choice_rf_0_49_0_40_T_12| false)
(= |memory_model::choice_rf_0_49_0_45_T_13| true)
(= |memory_model::choice_rf_0_72_0_36_F_14| false)
(= |memory_model::choice_rf_0_72_1_20_F_15| false)
(= |memory_model::choice_rf_0_72_2_0_F_16| true)
(= |memory_model::choice_rf_1_19_0_36_F_17| false)
(= |memory_model::choice_rf_1_19_2_0_F_18| false)
(= |memory_model::choice_rf_0_53_0_11_F_19| false)
(= |memory_model::choice_rf_0_53_1_34_F_20| false)
(= |memory_model::choice_rf_0_53_2_16_F_21| false)
(= |memory_model::choice_rf_0_53_3_36_F_22| true)
(= |memory_model::choice_rf_1_33_0_11_F_23| false)
(= |memory_model::choice_rf_1_33_2_16_F_24| true)
(= |memory_model::choice_rf_1_33_3_36_F_25| false)
(= |memory_model::choice_rf_2_15_0_11_F_26| true)
(= |memory_model::choice_rf_2_15_1_34_F_27| false)
(= |memory_model::choice_rf_2_15_3_36_F_28| false)
(= |memory_model::choice_rf_3_35_0_11_F_29| false)
(= |memory_model::choice_rf_3_35_1_34_F_30| true)
(= |memory_model::choice_rf_3_35_2_16_F_31| false)
(= |memory_model::choice_rf_0_71_0_12_F_32| false)
(= |memory_model::choice_rf_0_71_2_2_F_33| true)
(= |memory_model::choice_rf_0_70_0_13_F_34| false)
(= |memory_model::choice_rf_0_70_3_3_F_35| true)
(= |memory_model::choice_rf_0_69_0_14_F_36| false)
(= |memory_model::choice_rf_0_69_3_11_F_37| true)
(= |memory_model::choice_rf_0_56_0_15_F_38| false)
(= |memory_model::choice_rf_0_56_1_32_F_39| false)
(= |memory_model::choice_rf_0_56_2_14_F_40| true)
(= |memory_model::choice_rf_0_56_3_18_F_41| false)
(= |memory_model::choice_rf_0_56_3_34_F_42| false)
(= |memory_model::choice_rf_1_21_0_15_F_43| false)
(= |memory_model::choice_rf_1_21_0_67_F_44| false)
(= |memory_model::choice_rf_1_21_2_14_F_45| false)
(= |memory_model::choice_rf_1_21_3_18_F_46| true)
(= |memory_model::choice_rf_1_21_3_34_F_47| false)
(= |memory_model::choice_rf_2_3_0_15_F_48| false)
(= |memory_model::choice_rf_2_3_0_67_F_49| false)
(= |memory_model::choice_rf_2_3_1_32_F_50| false)
(= |memory_model::choice_rf_2_3_3_18_F_51| false)
(= |memory_model::choice_rf_2_3_3_34_F_52| true)
(= |memory_model::choice_rf_3_10_0_15_F_53| true)
(= |memory_model::choice_rf_3_10_0_67_F_54| false)
(= |memory_model::choice_rf_3_10_1_32_F_55| false)
(= |memory_model::choice_rf_3_10_2_14_F_56| false)
(= |memory_model::choice_rf_3_23_0_15_F_57| false)
(= |memory_model::choice_rf_3_23_0_67_F_58| false)
(= |memory_model::choice_rf_3_23_1_32_F_59| true)
(= |memory_model::choice_rf_3_23_2_14_F_60| false)
(= |memory_model::choice_rf_3_23_3_18_F_61| false)
(= |memory_model::choice_rf_0_61_0_18_F_62| true)
(= |memory_model::choice_rf_1_6_0_18_F_63| true)
(= |memory_model::choice_rf_1_6_0_64_F_64| false)
(= |memory_model::choice_rf_1_3_0_19_F_65| true)
(= |memory_model::choice_rf_1_26_0_19_F_66| false)
(= |memory_model::choice_rf_1_26_1_10_F_67| true)
(= |memory_model::choice_rf_1_1_0_20_F_68| true)
(= |memory_model::choice_rf_1_1_2_11_F_69| false)
(= |memory_model::choice_rf_2_8_0_20_F_70| true)
(= |memory_model::choice_rf_1_4_0_21_F_71| true)
(= |memory_model::choice_rf_1_4_3_12_F_72| false)
(= |memory_model::choice_rf_1_4_3_30_F_73| false)
(= |memory_model::choice_rf_3_7_0_21_F_74| true)
(= |memory_model::choice_rf_3_27_0_21_F_75| false)
(= |memory_model::choice_rf_3_27_3_12_F_76| true)
(= |memory_model::choice_rf_0_60_0_22_F_77| false)
(= |memory_model::choice_rf_0_60_1_13_F_78| true)
(= |memory_model::choice_rf_1_5_0_22_F_79| false)
(= |memory_model::choice_rf_1_5_0_63_F_80| false)
(= |memory_model::choice_rf_1_2_0_23_F_81| false)
(= |memory_model::choice_rf_1_25_0_23_F_82| false)
(= |memory_model::choice_rf_1_25_1_12_F_83| true)
(= |memory_model::choice_rf_1_0_0_24_F_84| false)
(= |memory_model::choice_rf_1_0_2_10_F_85| false)
(= |memory_model::choice_rf_2_7_0_24_F_86| false)
(= |memory_model::choice_rf_2_7_1_11_F_87| true)
(= |memory_model::choice_rf_1_7_0_25_F_88| false)
(= |memory_model::choice_rf_1_7_3_14_F_89| false)
(= |memory_model::choice_rf_1_7_3_32_F_90| false)
(= |memory_model::choice_rf_3_8_0_25_F_91| false)
(= |memory_model::choice_rf_3_8_1_14_F_92| true)
(= |memory_model::choice_rf_3_28_0_25_F_93| false)
(= |memory_model::choice_rf_3_28_1_14_F_94| false)
(= |memory_model::choice_rf_3_28_3_14_F_95| true)
(= |memory_model::choice_rf_0_59_0_28_F_96| false)
(= |memory_model::choice_rf_0_59_1_17_F_97| false)
(= |memory_model::choice_rf_0_59_3_17_F_98| true)
(= |memory_model::choice_rf_1_9_0_28_F_99| true)
(= |memory_model::choice_rf_1_9_3_17_F_100| false)
(= |memory_model::choice_rf_1_24_0_28_F_101| false)
(= |memory_model::choice_rf_1_24_1_17_F_102| false)
(= |memory_model::choice_rf_1_24_3_17_F_103| true)
(= |memory_model::choice_rf_2_6_0_28_F_104| false)
(= |memory_model::choice_rf_2_6_1_17_F_105| false)
(= |memory_model::choice_rf_2_6_3_17_F_106| true)
(= |memory_model::choice_rf_3_5_0_28_F_107| false)
(= |memory_model::choice_rf_3_5_1_17_F_108| true)
(= |memory_model::choice_rf_3_26_0_28_F_109| false)
(= |memory_model::choice_rf_3_26_1_17_F_110| false)
(= |memory_model::choice_rf_3_26_3_17_F_111| true)
(= |memory_model::choice_rf_0_62_0_29_F_112| false)
(= |memory_model::choice_rf_0_62_1_15_F_113| false)
(= |memory_model::choice_rf_0_62_1_31_F_114| false)
(= |memory_model::choice_rf_0_62_2_13_F_115| true)
(= |memory_model::choice_rf_0_62_3_15_F_116| false)
(= |memory_model::choice_rf_0_62_3_33_F_117| false)
(= |memory_model::choice_rf_1_8_0_29_F_118| true)
(= |memory_model::choice_rf_1_8_0_66_F_119| false)
(= |memory_model::choice_rf_1_8_2_13_F_120| false)
(= |memory_model::choice_rf_1_8_3_15_F_121| false)
(= |memory_model::choice_rf_1_8_3_33_F_122| false)
(= |memory_model::choice_rf_1_27_0_29_F_123| false)
(= |memory_model::choice_rf_1_27_0_66_F_124| false)
(= |memory_model::choice_rf_1_27_1_15_F_125| false)
(= |memory_model::choice_rf_1_27_2_13_F_126| false)
(= |memory_model::choice_rf_1_27_3_15_F_127| true)
(= |memory_model::choice_rf_1_27_3_33_F_128| false)
(= |memory_model::choice_rf_2_9_0_29_F_129| false)
(= |memory_model::choice_rf_2_9_0_66_F_130| false)
(= |memory_model::choice_rf_2_9_1_15_F_131| false)
(= |memory_model::choice_rf_2_9_1_31_F_132| false)
(= |memory_model::choice_rf_2_9_3_15_F_133| false)
(= |memory_model::choice_rf_2_9_3_33_F_134| true)
(= |memory_model::choice_rf_3_9_0_29_F_135| false)
(= |memory_model::choice_rf_3_9_0_66_F_136| false)
(= |memory_model::choice_rf_3_9_1_15_F_137| true)
(= |memory_model::choice_rf_3_9_1_31_F_138| false)
(= |memory_model::choice_rf_3_9_2_13_F_139| false)
(= |memory_model::choice_rf_3_29_0_29_F_140| false)
(= |memory_model::choice_rf_3_29_0_66_F_141| false)
(= |memory_model::choice_rf_3_29_1_15_F_142| false)
(= |memory_model::choice_rf_3_29_1_31_F_143| true)
(= |memory_model::choice_rf_3_29_2_13_F_144| false)
(= |memory_model::choice_rf_3_29_3_15_F_145| false)
(= |memory_model::choice_rf_0_57_0_30_F_146| false)
(= |memory_model::choice_rf_0_57_1_18_F_147| false)
(= |memory_model::choice_rf_0_57_3_16_F_148| true)
(= |memory_model::choice_rf_1_22_0_30_F_149| false)
(= |memory_model::choice_rf_1_22_1_18_F_150| false)
(= |memory_model::choice_rf_1_22_3_16_F_151| true)
(= |memory_model::choice_rf_2_4_0_30_F_152| false)
(= |memory_model::choice_rf_2_4_1_18_F_153| false)
(= |memory_model::choice_rf_2_4_3_16_F_154| true)
(= |memory_model::choice_rf_3_4_0_30_F_155| false)
(= |memory_model::choice_rf_3_4_1_18_F_156| true)
(= |memory_model::choice_rf_3_24_0_30_F_157| false)
(= |memory_model::choice_rf_3_24_1_18_F_158| false)
(= |memory_model::choice_rf_3_24_3_16_F_159| true)
(= |memory_model::choice_rf_0_58_0_31_F_160| false)
(= |memory_model::choice_rf_0_58_1_16_F_161| false)
(= |memory_model::choice_rf_0_58_1_30_F_162| false)
(= |memory_model::choice_rf_0_58_2_12_F_163| true)
(= |memory_model::choice_rf_0_58_3_13_F_164| false)
(= |memory_model::choice_rf_0_58_3_31_F_165| false)
(= |memory_model::choice_rf_1_23_0_31_F_166| false)
(= |memory_model::choice_rf_1_23_0_65_F_167| false)
(= |memory_model::choice_rf_1_23_1_16_F_168| false)
(= |memory_model::choice_rf_1_23_2_12_F_169| false)
(= |memory_model::choice_rf_1_23_3_13_F_170| true)
(= |memory_model::choice_rf_1_23_3_31_F_171| false)
(= |memory_model::choice_rf_2_5_0_31_F_172| false)
(= |memory_model::choice_rf_2_5_0_65_F_173| false)
(= |memory_model::choice_rf_2_5_1_16_F_174| false)
(= |memory_model::choice_rf_2_5_1_30_F_175| false)
(= |memory_model::choice_rf_2_5_3_13_F_176| false)
(= |memory_model::choice_rf_2_5_3_31_F_177| true)
(= |memory_model::choice_rf_3_6_0_31_F_178| false)
(= |memory_model::choice_rf_3_6_0_65_F_179| false)
(= |memory_model::choice_rf_3_6_1_16_F_180| true)
(= |memory_model::choice_rf_3_6_1_30_F_181| false)
(= |memory_model::choice_rf_3_6_2_12_F_182| false)
(= |memory_model::choice_rf_3_25_0_31_F_183| false)
(= |memory_model::choice_rf_3_25_0_65_F_184| false)
(= |memory_model::choice_rf_3_25_1_16_F_185| false)
(= |memory_model::choice_rf_3_25_1_30_F_186| true)
(= |memory_model::choice_rf_3_25_2_12_F_187| false)
(= |memory_model::choice_rf_3_25_3_13_F_188| false)
(= |memory_model::choice_rf_0_55_0_32_F_189| false)
(= |memory_model::choice_rf_0_55_0_54_F_190| true)
(= |memory_model::choice_rf_0_68_0_33_F_191| false)
(= |memory_model::choice_rf_0_74_0_33_F_192| false)
(= |memory_model::choice_rf_0_74_0_73_F_193| true)
(= |memory_model::choice_rf_0_75_0_33_F_194| false)
(= |memory_model::choice_rf_0_75_0_73_F_195| true)
(= |memory_model::choice_rf_2_1_0_37_F_196| true)
(= |memory_model::choice_rf_2_1_3_0_F_197| false)
(= |memory_model::choice_rf_3_2_0_38_F_198| false)
(= |memory_model::choice_rf_3_2_3_1_F_199| true)
(= |memory_model::choice_ws-ext_0_10_1_36_T_200| true)
(= |memory_model::choice_ws-ext_0_10_2_18_T_201| true)
(= |memory_model::choice_ws-ext_0_10_3_38_T_202| true)
(= |memory_model::choice_ws-ext_1_36_2_18_T_203| false)
(= |memory_model::choice_ws-ext_1_36_3_38_T_204| false)
(= |memory_model::choice_ws-ext_2_18_3_38_T_205| true)
(= |memory_model::choice_ws-ext_0_36_1_20_F_206| true)
(= |memory_model::choice_ws-ext_0_36_2_0_F_207| true)
(= |memory_model::choice_ws-ext_1_20_2_0_F_208| true)
(= |memory_model::choice_ws-ext_0_11_1_34_F_209| true)
(= |memory_model::choice_ws-ext_0_11_2_16_F_210| true)
(= |memory_model::choice_ws-ext_0_11_3_36_F_211| true)
(= |memory_model::choice_ws-ext_1_34_2_16_F_212| false)
(= |memory_model::choice_ws-ext_1_34_3_36_F_213| true)
(= |memory_model::choice_ws-ext_2_16_3_36_F_214| true)
(= |memory_model::choice_ws-ext_0_12_2_2_F_215| true)
(= |memory_model::choice_ws-ext_0_13_3_3_F_216| true)
(= |memory_model::choice_ws-ext_0_14_3_11_F_217| true)
(= |memory_model::choice_ws-ext_0_15_1_32_F_218| true)
(= |memory_model::choice_ws-ext_0_15_2_14_F_219| true)
(= |memory_model::choice_ws-ext_0_15_3_18_F_220| true)
(= |memory_model::choice_ws-ext_0_15_3_34_F_221| true)
(= |memory_model::choice_ws-ext_0_67_1_32_F_222| false)
(= |memory_model::choice_ws-ext_0_67_2_14_F_223| false)
(= |memory_model::choice_ws-ext_0_67_3_18_F_224| false)
(= |memory_model::choice_ws-ext_0_67_3_34_F_225| false)
(= |memory_model::choice_ws-ext_1_32_2_14_F_226| true)
(= |memory_model::choice_ws-ext_1_32_3_18_F_227| false)
(= |memory_model::choice_ws-ext_1_32_3_34_F_228| true)
(= |memory_model::choice_ws-ext_2_14_3_18_F_229| false)
(= |memory_model::choice_ws-ext_2_14_3_34_F_230| false)
(= |memory_model::choice_ws-ext_0_16_3_21_F_231| true)
(= |memory_model::choice_ws-ext_0_17_3_19_F_232| true)
(= |memory_model::choice_ws-ext_0_19_1_10_F_233| true)
(= |memory_model::choice_ws-ext_0_19_1_29_F_234| true)
(= |memory_model::choice_ws-ext_0_20_2_11_F_235| true)
(= |memory_model::choice_ws-ext_0_21_3_12_F_236| true)
(= |memory_model::choice_ws-ext_0_21_3_30_F_237| true)
(= |memory_model::choice_ws-ext_0_22_1_13_F_238| true)
(= |memory_model::choice_ws-ext_0_63_1_13_F_239| false)
(= |memory_model::choice_ws-ext_0_23_1_12_F_240| true)
(= |memory_model::choice_ws-ext_0_23_1_28_F_241| true)
(= |memory_model::choice_ws-ext_0_24_1_11_F_242| true)
(= |memory_model::choice_ws-ext_0_24_2_10_F_243| true)
(= |memory_model::choice_ws-ext_1_11_2_10_F_244| true)
(= |memory_model::choice_ws-ext_0_25_1_14_F_245| true)
(= |memory_model::choice_ws-ext_0_25_3_14_F_246| true)
(= |memory_model::choice_ws-ext_0_25_3_32_F_247| true)
(= |memory_model::choice_ws-ext_1_14_3_14_F_248| true)
(= |memory_model::choice_ws-ext_1_14_3_32_F_249| true)
(= |memory_model::choice_ws-ext_0_28_1_17_F_250| true)
(= |memory_model::choice_ws-ext_0_28_3_17_F_251| true)
(= |memory_model::choice_ws-ext_1_17_3_17_F_252| true)
(= |memory_model::choice_ws-ext_0_29_1_15_F_253| true)
(= |memory_model::choice_ws-ext_0_29_1_31_F_254| true)
(= |memory_model::choice_ws-ext_0_29_2_13_F_255| true)
(= |memory_model::choice_ws-ext_0_29_3_15_F_256| true)
(= |memory_model::choice_ws-ext_0_29_3_33_F_257| true)
(= |memory_model::choice_ws-ext_0_66_1_15_F_258| false)
(= |memory_model::choice_ws-ext_0_66_1_31_F_259| false)
(= |memory_model::choice_ws-ext_0_66_2_13_F_260| false)
(= |memory_model::choice_ws-ext_0_66_3_15_F_261| false)
(= |memory_model::choice_ws-ext_0_66_3_33_F_262| false)
(= |memory_model::choice_ws-ext_1_15_2_13_F_263| true)
(= |memory_model::choice_ws-ext_1_15_3_15_F_264| true)
(= |memory_model::choice_ws-ext_1_15_3_33_F_265| true)
(= |memory_model::choice_ws-ext_1_31_2_13_F_266| true)
(= |memory_model::choice_ws-ext_1_31_3_15_F_267| false)
(= |memory_model::choice_ws-ext_1_31_3_33_F_268| true)
(= |memory_model::choice_ws-ext_2_13_3_15_F_269| false)
(= |memory_model::choice_ws-ext_2_13_3_33_F_270| false)
(= |memory_model::choice_ws-ext_0_30_1_18_F_271| true)
(= |memory_model::choice_ws-ext_0_30_3_16_F_272| true)
(= |memory_model::choice_ws-ext_1_18_3_16_F_273| true)
(= |memory_model::choice_ws-ext_0_31_1_16_F_274| true)
(= |memory_model::choice_ws-ext_0_31_1_30_F_275| true)
(= |memory_model::choice_ws-ext_0_31_2_12_F_276| true)
(= |memory_model::choice_ws-ext_0_31_3_13_F_277| true)
(= |memory_model::choice_ws-ext_0_31_3_31_F_278| true)
(= |memory_model::choice_ws-ext_0_65_1_16_F_279| false)
(= |memory_model::choice_ws-ext_0_65_1_30_F_280| false)
(= |memory_model::choice_ws-ext_0_65_2_12_F_281| false)
(= |memory_model::choice_ws-ext_0_65_3_13_F_282| false)
(= |memory_model::choice_ws-ext_0_65_3_31_F_283| false)
(= |memory_model::choice_ws-ext_1_16_2_12_F_284| true)
(= |memory_model::choice_ws-ext_1_16_3_13_F_285| true)
(= |memory_model::choice_ws-ext_1_16_3_31_F_286| true)
(= |memory_model::choice_ws-ext_1_30_2_12_F_287| true)
(= |memory_model::choice_ws-ext_1_30_3_13_F_288| false)
(= |memory_model::choice_ws-ext_1_30_3_31_F_289| true)
(= |memory_model::choice_ws-ext_2_12_3_13_F_290| false)
(= |memory_model::choice_ws-ext_2_12_3_31_F_291| false)
(= |memory_model::choice_ws-ext_0_37_3_0_F_292| true)
(= |memory_model::choice_ws-ext_0_38_3_1_F_293| true)
(= |memory_model::choice_ws-ext_0_34_3_22_F_294| true)
(= |memory_model::choice_ws-ext_0_35_3_20_F_295| true)
(= |main$tmp_guard0#3| #b00000001)
(= |__CPROVER_next_thread_id#3| #b00000000000000000000000000000001)
(= |__CPROVER_next_thread_id#6| #b00000000000000000000000000000010)
(= |__unbuffered_cnt#2| #b00000000000000000000000000000011)
(= |a$w_buff0_used#2| #b00000000)
(= |a$r_buff0_thd0#2| #b00000000)
(= |a$w_buff0#2| #b00000000000000000000000000000001)
(= |a$w_buff1_used#2| #b00000000)
(= |a$r_buff1_thd0#2| #b00000000)
(= |a$w_buff1#2| #b00000000000000000000000000000000)
(= |a#2| #b00000000000000000000000000000001)
(= |a#4| #b00000000000000000000000000000001)
(= |a$w_buff0_used#6| #b00000000)
(= |a$w_buff1_used#6| #b00000000)
(= |a$r_buff0_thd0#8| #b00000000)
(= |a$r_buff1_thd0#7| #b00000000)
(= |x#2| #b00000000000000000000000000000010)
(= |__unbuffered_p1_EAX#2| #b00000000000000000000000000000000)
(= |__unbuffered_p2_EAX#2| #b00000000000000000000000000000001)
(= |__unbuffered_p2_EBX#2| #b00000000000000000000000000000000)
(= |main$tmp_guard1#2| #b00000000)
(= |main$tmp_guard1#3| #b10000000)
(= |main$tmp_guard1#6| #b00000000)
(= |pthread_create::1::this_thread_id!1@0#0| #b00000000000000000000000000000000)
(= |a$w_buff0#4| #b00000000000000000000000000000000)
(= |a$w_buff0_used#11| #b00000000)
(= |a$r_buff0_thd0#11| #b00000000)
(= |a$r_buff1_thd0#9| #b00000000)
(= |a$r_buff1_thd0#10| #b10000000)
(= |a$r_buff0_thd1#2| #b00000000)
(= |a$r_buff1_thd1#2| #b00000000)
(= |a$r_buff1_thd1#3| #b00000000)
(= |a$r_buff0_thd2#2| #b00000000)
(= |a$r_buff1_thd2#2| #b00000000)
(= |a$r_buff1_thd2#3| #b10000000)
(= |a$r_buff0_thd3#2| #b00000000)
(= |a$r_buff1_thd3#2| #b00000000)
(= |a$r_buff1_thd3#3| #b00000000)
(= |a$r_buff0_thd1#4| #b00000001)
(= |x#4| #b00000000000000000000000000000001)
(= |x#5| #b10000000000000000000000000000000)
(= |a$w_buff0_used#14| #b00000001)
(= |a$r_buff0_thd1#6| #b00000001)
(= |a$w_buff0#7| #b00000000000000000000000000000001)
(= |a$w_buff1_used#10| #b00000000)
(= |a$r_buff1_thd1#5| #b00000000)
(= |a$w_buff1#5| #b00000000000000000000000000000000)
(= |a#6| #b00000000000000000000000000000000)
(= |a#8| #b00000000000000000000000000000001)
(= |a$w_buff0_used#18| #b00000000)
(= |a$w_buff1_used#14| #b00000000)
(= |a$r_buff0_thd1#12| #b00000001)
(= |a$r_buff1_thd1#10| #b00000000)
(= |__unbuffered_cnt#4| #b00000000000000000000000000000001)
(= |__unbuffered_cnt#6| #b00000000000000000000000000000010)
(= |pthread_create::1::this_thread_id!2@0#0| #b00000000000000000000000000000000)
(= |y#2| #b00000000000000000000000000000000)
(= |a$w_buff0_used#23| #b00000000)
(= |a$r_buff0_thd2#4| #b00000000)
(= |a$w_buff0#9| #b00000000000000000000000000000001)
(= |a$w_buff1_used#17| #b00000000)
(= |a$r_buff1_thd2#5| #b00000000)
(= |a$w_buff1#7| #b00000000000000000000000000000000)
(= |a#10| #b00000000000000000000000000000001)
(= |__unbuffered_cnt#8| #b00000000000000000000000000000000)
(= |pthread_create::1::this_thread_id!3@0#0| #b10000000000000000000000000000000)
(= |z#3| #b00000000000000000000000000000001)
(= |nondet_symex::nondet3| #b00000000000000000000000000000000)
(= |a#13| #b00000000000000000000000000000000)
(= |a$w_buff0_used#26| #b00000001)
(= |a$r_buff0_thd3#4| #b00000000)
(= |a$w_buff1_used#20| #b00000000)
(= |a$r_buff1_thd3#5| #b00000000)
(= |a$w_buff0#11| #b00000000000000000000000000000001)
(= |a$w_buff1#9| #b00000000000000000000000000000000)
(= |a$w_buff0_used#29| #b00000000)
(= |a$r_buff0_thd3#7| #b00000000)
(= |a$w_buff0#14| #b00000000000000000000000000000001)
(= |a$w_buff1_used#23| #b00000000)
(= |a$r_buff1_thd3#8| #b00000000)
(= |a$w_buff1#12| #b00000000000000000000000000000000)
(= |a#17| #b00000000000000000000000000000001)
(= |__unbuffered_cnt#11| #b00000000000000000000000000000010)
(= |__CPROVER_threads_exited#1$wclk$8| #b00011001)
(= |__CPROVER_threads_exited#2$rclk$8| #b11110111)
(= |__CPROVER_threads_exited#5$wclk$8| #b11110011)
(= |__CPROVER_threads_exited#7$wclk$8| #b11110110)
(= |__CPROVER_threads_exited#4$rclk$8| #b11101110)
(= |__CPROVER_threads_exited#3$wclk$8| #b11111111)
(= |__CPROVER_threads_exited#6$rclk$8| #b11110100)
(= |x#6$wclk$8| #b01100010)
(= |x#2$rclk$8| #b11110111)
(= |x#7$wclk$8| #b01100011)
(= |x#1$wclk$8| #b01010010)
(= |x#5$rclk$8| #b01100010)
(= |__unbuffered_cnt#7$wclk$8| #b11110010)
(= |__unbuffered_cnt#2$rclk$8| #b11110100)
(= |__unbuffered_cnt#10$wclk$8| #b11101001)
(= |__unbuffered_cnt#13$wclk$8| #b11110011)
(= |__unbuffered_cnt#1$wclk$8| #b00011010)
(= |__unbuffered_cnt#4$rclk$8| #b11110010)
(= |__unbuffered_cnt#8$rclk$8| #b11101001)
(= |__unbuffered_cnt#11$rclk$8| #b11110011)
(= |__unbuffered_p1_EAX#4$wclk$8| #b01100101)
(= |__unbuffered_p1_EAX#2$rclk$8| #b11110111)
(= |__unbuffered_p2_EAX#4$wclk$8| #b11010011)
(= |__unbuffered_p2_EAX#2$rclk$8| #b11110111)
(= |__unbuffered_p2_EBX#4$wclk$8| #b11100001)
(= |__unbuffered_p2_EBX#2$rclk$8| #b11110111)
(= |a#9$wclk$8| #b11100011)
(= |a#2$rclk$8| #b11110110)
(= |a#12$wclk$8| #b11101000)
(= |a#16$wclk$8| #b11100001)
(= |a#19$wclk$8| #b11100111)
(= |a#1$wclk$8| #b00011111)
(= |a#6$rclk$8| #b11100011)
(= |a#5$wclk$8| #b11110110)
(= |a#10$rclk$8| #b11101000)
(= |a#13$rclk$8| #b11100001)
(= |a#17$rclk$8| #b11100111)
(= |a$r_buff0_thd0#1$wclk$8| #b00100010)
(= |a$r_buff0_thd0#11$rclk$8| #b01100000)
(= |a$r_buff0_thd0#10$wclk$8| #b11110110)
(= |a$r_buff0_thd1#1$wclk$8| #b00100101)
(= |a$r_buff0_thd1#2$rclk$8| #b01100000)
(= |a$r_buff0_thd1#6$rclk$8| #b11100011)
(= |a$r_buff0_thd2#1$wclk$8| #b00100110)
(= |a$r_buff0_thd2#2$rclk$8| #b01100000)
(= |a$r_buff0_thd2#6$wclk$8| #b11101000)
(= |a$r_buff0_thd2#4$rclk$8| #b11101000)
(= |a$r_buff0_thd3#1$wclk$8| #b00100111)
(= |a$r_buff0_thd3#2$rclk$8| #b01100000)
(= |a$r_buff0_thd3#6$wclk$8| #b11100001)
(= |a$r_buff0_thd3#9$wclk$8| #b11100111)
(= |a$r_buff0_thd3#4$rclk$8| #b11100001)
(= |a$r_buff0_thd3#7$rclk$8| #b11100111)
(= |a$r_buff1_thd0#11$wclk$8| #b01100000)
(= |a$r_buff1_thd0#2$rclk$8| #b11110110)
(= |a$r_buff1_thd0#1$wclk$8| #b00110000)
(= |a$r_buff1_thd0#10$rclk$8| #b01100000)
(= |a$r_buff1_thd0#8$wclk$8| #b11110110)
(= |a$r_buff1_thd1#1$wclk$8| #b00110001)
(= |a$r_buff1_thd1#3$rclk$8| #b01100000)
(= |a$r_buff1_thd1#5$rclk$8| #b11100011)
(= |a$r_buff1_thd2#1$wclk$8| #b00110010)
(= |a$r_buff1_thd2#3$rclk$8| #b01100000)
(= |a$r_buff1_thd2#7$wclk$8| #b11101000)
(= |a$r_buff1_thd2#5$rclk$8| #b11101000)
(= |a$r_buff1_thd2#4$wclk$8| #b01100000)
(= |a$r_buff1_thd3#1$wclk$8| #b01000011)
(= |a$r_buff1_thd3#3$rclk$8| #b01100000)
(= |a$r_buff1_thd3#7$wclk$8| #b11100001)
(= |a$r_buff1_thd3#10$wclk$8| #b11100111)
(= |a$r_buff1_thd3#5$rclk$8| #b11100001)
(= |a$r_buff1_thd3#4$wclk$8| #b01100000)
(= |a$r_buff1_thd3#8$rclk$8| #b11100111)
(= |a$w_buff0#6$wclk$8| #b01100000)
(= |a$w_buff0#2$rclk$8| #b11110110)
(= |a$w_buff0#13$wclk$8| #b11100001)
(= |a$w_buff0#1$wclk$8| #b01000110)
(= |a$w_buff0#4$rclk$8| #b01100000)
(= |a$w_buff0#7$rclk$8| #b11100011)
(= |a$w_buff0#9$rclk$8| #b11101000)
(= |a$w_buff0#11$rclk$8| #b11100001)
(= |a$w_buff0#14$rclk$8| #b11100111)
(= |a$w_buff0_used#13$wclk$8| #b01100000)
(= |a$w_buff0_used#2$rclk$8| #b11110110)
(= |a$w_buff0_used#22$wclk$8| #b11100011)
(= |a$w_buff0_used#25$wclk$8| #b11101000)
(= |a$w_buff0_used#28$wclk$8| #b11100001)
(= |a$w_buff0_used#31$wclk$8| #b11100111)
(= |a$w_buff0_used#1$wclk$8| #b01001000)
(= |a$w_buff0_used#11$rclk$8| #b01100000)
(= |a$w_buff0_used#10$wclk$8| #b11110110)
(= |a$w_buff0_used#14$rclk$8| #b11100011)
(= |a$w_buff0_used#23$rclk$8| #b11101000)
(= |a$w_buff0_used#26$rclk$8| #b11100001)
(= |a$w_buff0_used#29$rclk$8| #b11100111)
(= |a$w_buff1#4$wclk$8| #b01100000)
(= |a$w_buff1#2$rclk$8| #b11110110)
(= |a$w_buff1#11$wclk$8| #b11100001)
(= |a$w_buff1#1$wclk$8| #b01001001)
(= |a$w_buff1#5$rclk$8| #b11100011)
(= |a$w_buff1#7$rclk$8| #b11101000)
(= |a$w_buff1#9$rclk$8| #b11100001)
(= |a$w_buff1#12$rclk$8| #b11100111)
(= |a$w_buff1_used#9$wclk$8| #b01100000)
(= |a$w_buff1_used#2$rclk$8| #b11110110)
(= |a$w_buff1_used#16$wclk$8| #b11100011)
(= |a$w_buff1_used#19$wclk$8| #b11101000)
(= |a$w_buff1_used#22$wclk$8| #b11100001)
(= |a$w_buff1_used#25$wclk$8| #b11100111)
(= |a$w_buff1_used#1$wclk$8| #b01001010)
(= |a$w_buff1_used#10$rclk$8| #b11100011)
(= |a$w_buff1_used#8$wclk$8| #b11110110)
(= |a$w_buff1_used#17$rclk$8| #b11101000)
(= |a$w_buff1_used#20$rclk$8| #b11100001)
(= |a$w_buff1_used#23$rclk$8| #b11100111)
(= |main$tmp_guard1#5| #b00000000)
(= |y#1$wclk$8| #b01010011)
(= |y#2$rclk$8| #b01100101)
(= |y#4$wclk$8| #b11001111)
(= |z#1$wclk$8| #b01010101)
(= |z#3$rclk$8| #b11010011)
(= |__unbuffered_p1_EAX#1$wclk$8| #b00011011)
(= |__unbuffered_p2_EAX#1$wclk$8| #b00011100)
(= |__unbuffered_p2_EBX#1$wclk$8| #b00011110)
(= |a$flush_delayed#1$wclk$8| #b00100000)
(= |a$flush_delayed#3$wclk$8| #b11100001)
(= |a$mem_tmp#1$wclk$8| #b00100001)
(= |a$mem_tmp#2$wclk$8| #b11100001)
(= |a$r_buff0_thd1#5$wclk$8| #b01100000)
(= |a$r_buff0_thd1#14$wclk$8| #b11100011)
(= |a$r_buff1_thd1#4$wclk$8| #b01100000)
(= |a$r_buff1_thd1#11$wclk$8| #b11100011)
(= |z#2$wclk$8| #b11010010)
(= |weak$$choice0#1$wclk$8| #b01001111)
(= |weak$$choice0#2$wclk$8| #b11100001)
(= |weak$$choice2#1$wclk$8| #b01010000)
(= |weak$$choice2#2$wclk$8| #b11100001)
(= t1$42$spwnclk$8 #b01011001)
(= t1$47$spwnclk$8 #b01011101)
(= t1$52$spwnclk$8 #b11001110)
(= |main::1::t1010!0@1$wclk$8| #b00000000)
(= |main::1::t1011!0@1$wclk$8| #b00000001)
(= |__CPROVER_dead_object#1$wclk$8| #b00000010)
(= |__CPROVER_deallocated#1$wclk$8| #b00000011)
(= |__CPROVER_malloc_is_new_array#1$wclk$8| #b00000110)
(= |__CPROVER_malloc_object#1$wclk$8| #b00010000)
(= |__CPROVER_malloc_size#1$wclk$8| #b00010001)
(= |__CPROVER_memory_leak#1$wclk$8| #b00010010)
(= |__CPROVER_next_thread_id#1$wclk$8| #b00010011)
(= |__CPROVER_pipe_count#1$wclk$8| #b00011000)
(= |a$read_delayed#1$wclk$8| #b01000100)
(= |a$read_delayed_var#1$wclk$8| #b01000101)
(= |main$tmp_guard0#1$wclk$8| #b01001011)
(= |main$tmp_guard1#1$wclk$8| #b01001110)
(= |main::1::t1009!0@1#1$wclk$8| #b01010110)
(= |__CPROVER_next_thread_id#2$wclk$8| #b01010111)
(= |main::1::t1009!0@1#2$wclk$8| #b01011000)
(= |main::1::t1010!0@1#1$wclk$8| #b01011010)
(= |__CPROVER_next_thread_id#3$rclk$8| #b01011011)
(= |__CPROVER_next_thread_id#5$wclk$8| #b01011011)
(= |main::1::t1010!0@1#2$wclk$8| #b01011100)
(= |main::1::t1011!0@1#1$wclk$8| #b10001110)
(= |__CPROVER_next_thread_id#6$rclk$8| #b10011100)
(= |__CPROVER_next_thread_id#8$wclk$8| #b10011100)
(= |main::1::t1011!0@1#2$wclk$8| #b10011101)
(= |main$tmp_guard0#2$wclk$8| #b11110100)
(= |main$tmp_guard0#3$rclk$8| #b11110101)
(= |a$r_buff0_thd0#2$rclk$8| #b11110110)
(= |main$tmp_guard1#3$rclk$8| #b11110111)
(= |main$tmp_guard1#4$wclk$8| #b11110111)
(= |main$tmp_guard1#5$rclk$8| #b11111110)
(= |main$tmp_guard1#6$rclk$8| #b11111111)
(= array_of.0 @fun_10)
(= |__CPROVER_threads_exited#2| @fun_7)
(= |__CPROVER_threads_exited#4| @fun_10)
(= |__CPROVER_threads_exited#6| @fun_11)
(function @fun_10
 (type (Array (_ BitVec 32) (_ BitVec 1)))
 (= (@fun_10 #b00000000000000000000000000000000) #b0)
 (= (@fun_10 #b10000000000000000000000000000000) #b0)
 (default #b1))
(function @fun_7
 (type (Array (_ BitVec 32) (_ BitVec 1)))
 (default #b1))
(function @fun_11
 (type (Array (_ BitVec 32) (_ BitVec 1)))
 (= (@fun_11 #b10000000000000000000000000000000) #b0)
 (default #b1))

real	0m0.024s
user	0m0.014s
sys	0m0.010s
State: AC Run_time: 0.025835752487182617